50 50
   1   -1   -1   41   16   -1   27   -1    2   -1   -1   -1   12    1   19   34   -1   26   -1   22   15    9   -1   18   27   -1   -1    8   27   25   -1   -1   22    6   44   -1   12    7   -1   16   -1   46   -1   39    4   14   11    7   -1   -1 
   0    1   -1    0   -1   21   38   37   -1   -1   46   27   -1   -1   -1   -1   -1   37   18   -1   -1   40   11   42    1   -1   -1   13   43    3   -1   -1   -1   38   -1   12   -1   -1   -1   -1    8   -1   26   16   -1   -1   -1   -1   41   -1 
   0    0    1    6   28   30   -1    7   -1   -1    0   29   -1   -1   -1   16   14   -1   -1   11   20   -1   46   -1   -1   -1   15   -1    5   -1   27   -1   28   -1   -1   -1   -1   48   20   -1    6   45   -1   -1    5   -1   -1   -1   -1   -1 
   0    0    0    1   41   -1   -1   27   44   36    4   -1   -1   -1   20   20   -1   29    0   -1    6   34   -1   -1    2   -1   -1    1   -1   -1   -1    1   -1   -1   -1   -1   39   27   -1   -1   -1   -1   22    8   25   34   -1   -1    8   16 
   0    0    0    0    1   -1   16   -1    6   -1   39   -1   -1   -1   -1   10   -1   20   20   -1   44   -1   44   46   44   34   38   23   -1   -1   -1    4   49   -1   -1   41   -1   45   10   30   -1   -1   19   29   -1   -1   30   -1   -1   17 
   0    0    0    0    0    1   -1   -1   -1   -1   -1   -1   -1   -1   43   -1   -1   -1   25   -1   -1   -1   -1   -1   -1   -1   -1    5   -1    3   21   36   32   -1   -1   -1   39   43   33   -1   -1   20   -1   -1   -1   -1   -1   -1    3   -1 
   0    0    0    0    0    0    1   47   15   30   42   -1   40   33   -1   14   -1   -1   -1   -1   -1   -1   -1   -1   -1   34   -1   -1    9   -1   28   26   -1   45   -1   46   46   -1   27   20   24   -1   19   -1   -1   47   11   -1   38   -1 
   0    0    0    0    0    0    0    1   -1   -1   -1   18   -1   -1   -1   -1   -1   45   -1   21   23   -1   -1   -1   33   38   -1   33   -1   -1   22    4    0   27   -1   -1   -1   32   15   -1   35   43   -1   37   11   27   -1   18   -1   35 
   0    0    0    0    0    0    0    0    1   -1   32   38   12   -1   31    5   14   -1   -1   -1   46    0   -1   -1   -1   -1    1    2   36   11   39    8    1   -1   -1   -1    8   36   -1   20   25   -1   -1   -1   42   35   -1   21   10   -1 
   0    0    0    0    0    0    0    0    0    1   -1   -1   -1   -1   10   30   -1   -1   -1   46   -1   -1   -1   14   36   -1   -1   37   -1   48   -1   -1   -1    1   35   23   -1    8   -1   31   -1   13   -1   28   -1   -1   -1   -1   -1   -1 
   0    0    0    0    0    0    0    0    0    0    1   41   23   13   24   -1   -1   33   45   31   -1   -1   -1   23   -1   -1   43    7   -1   -1   26    6   -1   -1   30   -1    6   -1   26   12   -1   -1   -1    2   43   37   -1   -1   -1   -1 
   0    0    0    0    0    0    0    0    0    0    0    1   17   44   -1   23   -1   17   24    7   -1   40    4   27    3   16   -1   -1   -1   -1   -1    9   -1   -1   -1   10   -1   -1    8    5   34    2   -1   31   17   -1   -1   -1   -1   -1 
   0    0    0    0    0    0    0    0    0    0    0    0    1   17   -1    0   -1   38   -1    4    0   -1   -1   -1   13   -1   -1   17   19   10   -1   -1   -1   -1   26   11    1   31   -1   -1   -1   -1   -1   -1   -1   -1   25   41   20   -1 
   0    0    0    0    0    0    0    0    0    0    0    0    0    1   34   30   49   49   19   -1    3   41   -1   -1   48   29   -1   14   -1   -1    5   -1   26   -1   -1   47   -1   -1   -1    1   -1   22   18   30   -1    9    7   29    7   11 
   0    0    0    0    0    0    0    0    0    0    0    0    0    0    1   -1   -1   39   -1   24   36   -1   29   47   -1   49   42   40   -1   -1   -1   -1   11   -1   19   -1   24   -1   28   -1   41   30   -1   -1   -1   42   -1   -1   -1   -1 
   0    0    0    0    0    0    0    0    0    0    0    0    0    0    0    1   -1   -1   -1    2   -1   47   -1   43   29   -1   -1   49   12   11   -1   -1   46   -1   -1   40   -1   -1   -1   -1   15   -1   -1   -1   -1   47   -1   42   49   36 
   0    0    0    0    0    0    0    0    0    0    0    0    0    0    0    0    1   45   -1   42   -1   37   -1   -1    7   29   -1   -1   34   -1   -1   -1   39    0   10   -1   -1   49    7   -1   -1   -1   -1   -1   -1   12   38   -1   26   -1 
   0    0    0    0    0    0    0    0    0    0    0    0    0    0    0    0    0    1   -1   11   -1    7   -1   34   -1   -1   44   39   -1   -1   -1   -1   34   -1   -1   -1   -1   31   46   15   -1   31    8   32   42   -1   -1   -1   23   34 
   0    0    0    0    0    0    0    0    0    0    0    0    0    0    0    0    0    0    1   43   -1   -1   20   19   -1   47   -1    0   48   25   -1   44   18   -1   -1   33   -1    3   -1   -1   27   -1   10   14   -1   -1   -1   -1   11    0 
   0    0    0    0    0    0    0    0    0    0    0    0    0    0    0    0    0    0    0    1   37   -1    8   45   45   35   -1   -1   19   -1   -1   27   15   -1   -1   -1    8   -1   40    5   -1   -1    4   25   -1   -1   -1   -1   47   24 
   0    0    0    0    0    0    0    0    0    0    0    0    0    0    0    0    0    0    0    0    0   37   29   -1   21   -1   18   -1   33   -1   -1   31   -1    3   27   21   21   -1   25   -1   42   22   -1   46   -1   -1   28   42   28   -1 
   0    0    0    0    0    0    0    0    0    0    0    0    0    0    0    0    0    0    0    0    0    0   -1   -1   -1   -1   -1   30   26   22   48   -1   46    1   -1   -1    6   21   42   -1   35   -1   -1   -1   -1   -1   -1   -1   -1   -1 
   0    0    0    0    0    0    0    0    0    0    0    0    0    0    0    0    0    0    0    0    0    0    0   11   40   41   -1   -1   -1   -1   -1   -1    6   18   17   27   -1   20   13   -1   41   47   -1   24   -1   10   23   34   41   -1 
   0    0    0    0    0    0    0    0    0    0    0    0    0    0    0    0    0    0    0    0    0    0    0    0   47   34   -1   37   16    0   -1   -1    2   29   17   -1   -1   -1    4   -1   -1   -1   22   -1    9   43   -1    9   46    9 
   0    0    0    0    0    0    0    0    0    0    0    0    0    0    0    0    0    0    0    0    0    0    0    0    0    7   46   13   -1   33   38   36   49   -1   -1    6   -1   32   19   -1    3    0   40   -1   32   45   -1   -1   47   -1 
   0    0    0    0    0    0    0    0    0    0    0    0    0    0    0    0    0    0    0    0    0    0    0    0    0    0   46   43   -1   -1   -1   -1   37    7   -1    6   -1    8   -1    8   -1   -1   -1   -1   -1    7   17   21   -1   28 
   0    0    0    0    0    0    0    0    0    0    0    0    0    0    0    0    0    0    0    0    0    0    0    0    0    0    0   -1   -1   23   -1    8   36   36   41   -1   11   -1   -1   -1   48   44   -1    7   -1   -1   38    6   37   46 
   0    0    0    0    0    0    0    0    0    0    0    0    0    0    0    0    0    0    0    0    0    0    0    0    0    0    0    0   39   34   -1   15   -1   -1   -1   37   -1   12   39   36    0   22   -1   26   -1   -1   43   13   41   -1 
   0    0    0    0    0    0    0    0    0    0    0    0    0    0    0    0    0    0    0    0    0    0    0    0    0    0    0    0    0   -1   -1   -1   -1   -1   44   -1   17   -1   39   26   -1   -1   35   44   10   33   -1   -1    4   -1 
   0    0    0    0    0    0    0    0    0    0    0    0    0    0    0    0    0    0    0    0    0    0    0    0    0    0    0    0    0    0   -1   27   48    9   11   -1   -1    5   25   -1   18    1   -1   -1   22   -1   -1   39   22    6 
   0    0    0    0    0    0    0    0    0    0    0    0    0    0    0    0    0    0    0    0    0    0    0    0    0    0    0    0    0    0    0    5   15   -1   -1   -1   39   -1   -1   35   13   26   -1   -1    6   -1   11   -1   36   -1 
   0    0    0    0    0    0    0    0    0    0    0    0    0    0    0    0    0    0    0    0    0    0    0    0    0    0    0    0    0    0    0    0   35   28   -1   -1    5    6   -1   -1   -1   -1   43    4   -1   -1   -1   38    7   -1 
   0    0    0    0    0    0    0    0    0    0    0    0    0    0    0    0    0    0    0    0    0    0    0    0    0    0    0    0    0    0    0    0    0   -1   -1   -1   -1   31    0   -1   -1   27   23   -1   32   -1   -1   -1   39   -1 
   0    0    0    0    0    0    0    0    0    0    0    0    0    0    0    0    0    0    0    0    0    0    0    0    0    0    0    0    0    0    0    0    0    0   25   40   -1   -1   -1   -1   20   -1   -1    6   -1   14   -1   44   29    6 
   0    0    0    0    0    0    0    0    0    0    0    0    0    0    0    0    0    0    0    0    0    0    0    0    0    0    0    0    0    0    0    0    0    0    0    1   30   -1   29   47   25   -1   -1   -1   -1   27   -1   11   -1   -1 
   0    0    0    0    0    0    0    0    0    0    0    0    0    0    0    0    0    0    0    0    0    0    0    0    0    0    0    0    0    0    0    0    0    0    0    0   -1   27   -1   -1   -1   -1   34   44   44    2   -1    5   -1   -1 
   0    0    0    0    0    0    0    0    0    0    0    0    0    0    0    0    0    0    0    0    0    0    0    0    0    0    0    0    0    0    0    0    0    0    0    0    0   -1   48   39   -1   49    9    1   32   -1   -1   -1   -1   -1 
   0    0    0    0    0    0    0    0    0    0    0    0    0    0    0    0    0    0    0    0    0    0    0    0    0    0    0    0    0    0    0    0    0    0    0    0    0    0   -1   -1   -1   -1   20   44   13   12   13   -1   -1   -1 
   0    0    0    0    0    0    0    0    0    0    0    0    0    0    0    0    0    0    0    0    0    0    0    0    0    0    0    0    0    0    0    0    0    0    0    0    0    0    0   -1   27   16   -1   29    0   -1   49   -1   49    7 
   0    0    0    0    0    0    0    0    0    0    0    0    0    0    0    0    0    0    0    0    0    0    0    0    0    0    0    0    0    0    0    0    0    0    0    0    0    0    0    0    4   -1   13   45   -1   -1   31    4   27   -1 
   0    0    0    0    0    0    0    0    0    0    0    0    0    0    0    0    0    0    0    0    0    0    0    0    0    0    0    0    0    0    0    0    0    0    0    0    0    0    0    0    0   10   29   19    0   -1   -1   -1   -1   36 
   0    0    0    0    0    0    0    0    0    0    0    0    0    0    0    0    0    0    0    0    0    0    0    0    0    0    0    0    0    0    0    0    0    0    0    0    0    0    0    0    0    0   -1   -1   -1   11   -1   33   47   33 
   0    0    0    0    0    0    0    0    0    0    0    0    0    0    0    0    0    0    0    0    0    0    0    0    0    0    0    0    0    0    0    0    0    0    0    0    0    0    0    0    0    0    0   -1   -1   24   28   -1   20   18 
   0    0    0    0    0    0    0    0    0    0    0    0    0    0    0    0    0    0    0    0    0    0    0    0    0    0    0    0    0    0    0    0    0    0    0    0    0    0    0    0    0    0    0    0   -1   -1   33   -1   -1   34 
   0    0    0    0    0    0    0    0    0    0    0    0    0    0    0    0    0    0    0    0    0    0    0    0    0    0    0    0    0    0    0    0    0    0    0    0    0    0    0    0    0    0    0    0    0   -1   14   -1   37   -1 
   0    0    0    0    0    0    0    0    0    0    0    0    0    0    0    0    0    0    0    0    0    0    0    0    0    0    0    0    0    0    0    0    0    0    0    0    0    0    0    0    0    0    0    0    0    0   44   39   -1   -1 
   0    0    0    0    0    0    0    0    0    0    0    0    0    0    0    0    0    0    0    0    0    0    0    0    0    0    0    0    0    0    0    0    0    0    0    0    0    0    0    0    0    0    0    0    0    0    0   -1   -1   -1 
   0    0    0    0    0    0    0    0    0    0    0    0    0    0    0    0    0    0    0    0    0    0    0    0    0    0    0    0    0    0    0    0    0    0    0    0    0    0    0    0    0    0    0    0    0    0    0    0   48   -1 
   0    0    0    0    0    0    0    0    0    0    0    0    0    0    0    0    0    0    0    0    0    0    0    0    0    0    0    0    0    0    0    0    0    0    0    0    0    0    0    0    0    0    0    0    0    0    0    0    0   47 
   0    0    0    0    0    0    0    0    0    0    0    0    0    0    0    0    0    0    0    0    0    0    0    0    0    0    0    0    0    0    0    0    0    0    0    0    0    0    0    0    0    0    0    0    0    0    0    0    0    0 
